18
7
1 11 4 9 10 6 0 16 14 17 5 7 3 8 15 12 13
7 0 8 12 17 15 4 6 11 1 2 14 5 13
16 1 11 13 7 0 9 6 10 4 3 12 5 14 8
6 3 5 12 11 16 2 0 7 14
12 17 1 2 4
5 16 2 8 1 10 9 3 13 4 6 15 14 12 17 7 11
6 17 15 2 11 12 8 0 3 4 1 16 10 5
